32      4       
10      10      10      10      
0       0       0       0       0       2       2       3       
1       1       1       0       1       3       4       5       9       
9       0       5       1       2       2       4       9       
3       4       4       2       0       1       6       
5       0       3       4       5       1       6       
2       6       4       4       0       1       7       
7       5       2       4       0       2       8       12      
10      5       0       3       5       1       10      
10      4       4       0       3       1       10      
3       6       7       2       0       2       11      15      
2       5       5       7       0       3       13      14      16      
1       4       7       4       0       3       13      14      15      
7       3       5       0       2       3       17      18      19      
7       2       4       0       5       2       17      21      
10      6       6       0       3       2       17      21      
3       3       0       2       2       2       18      20      
8       4       0       7       5       3       20      22      23      
10      0       3       3       3       2       21      25      
9       0       3       5       4       2       20      22      
8       5       0       3       4       3       24      25      28      
8       0       3       4       4       1       22      
3       5       0       7       4       2       24      28      
10      3       3       3       0       2       24      28      
2       4       2       0       3       2       26      31      
7       3       0       2       4       1       26      
1       4       0       4       4       2       27      29      
10      3       0       6       6       1       30      
7       2       0       4       7       1       29      
7       4       6       0       7       1       32      
5       0       3       5       4       1       32      
5       5       0       6       5       1       32      
0       0       0       0       0       0       
